benchmarks_vrp/CMT5/fixed_c_size/CMT5_9.vrp
NAME: CMT5_9
TYPE: CVRP
COMMENT: 1291.29 - Cluster Nr.9
DIMENSION: 8
CAPACITY: 200
EDGE_WEIGHT_TYPE: EUC_2D
NODE_COORD_TYPE: TWOD_COORDS
NODE_COORD_SECTION: 
2 65 35
3 61 52
6 35 35
4 65 55
1 64 42
5 62 35
7 62 42
8 62 48
DEPOT_SECTION: 
6
-1
DEMAND_SECTION: 
4 14
6 0
8 15
5 12
3 3
7 8
2 3
1 9
EOF
