benchmarks_vrp/CMT5/fixed_c_size/CMT5_9.tour
NAME: CMT5_9 solution
TYPE: TOUR
TOUR_SECTION:
6 3 4 8 7 1 2 5 -1
-1
EOF